c Sudoku solution
p cnf 729 0
129 0
164 0
182 0
195 0
223 0
236 0
279 0
281 0
394 0
214 0
413 0
512 0
546 0
557 0
574 0
598 0
297 0
634 0
645 0
692 0
719 0
724 0
741 0
755 0
265 0
847 0
367 0
899 0
911 0
871 0
491 0
927 0
938 0
959 0
349 0
796 0
993 0
966 0
143 0
252 0
248 0
332 0
822 0
733 0
835 0
816 0
315 0
178 0
156 0
351 0
131 0
328 0
117 0
618 0
437 0
539 0
653 0
561 0
669 0
489 0
525 0
621 0
426 0
475 0
583 0
863 0
373 0
386 0
972 0
985 0
884 0
762 0
944 0
858 0
442 0
468 0
454 0
676 0
687 0
777 0
788 0
